mlkem-native/cvc5/polyvec_basemul_acc_montgomery_cached_harness.smt2
; SMT 2
; Generated for CVC 5
(set-info :source "Generated by CBMC 6.8.0 (n/a)")
(set-logic ALL)

; find_symbols
(declare-fun |__CPROVER_contracts_is_fresh::$tmp::return_value___VERIFIER_nondet___CPROVER_bool$1!0@1#2| () Bool)
; convert
; Converting var_no 0 with expr ID of symbol
(define-fun B0 () Bool |__CPROVER_contracts_is_fresh::$tmp::return_value___VERIFIER_nondet___CPROVER_bool$1!0@1#2|)

; convert
; Converting var_no 1 with expr ID of symbol
(define-fun B1 () Bool |__CPROVER_contracts_is_fresh::$tmp::return_value___VERIFIER_nondet___CPROVER_bool$1!0@1#2|)

; convert
; Converting var_no 2 with expr ID of symbol
(define-fun B2 () Bool |__CPROVER_contracts_is_fresh::$tmp::return_value___VERIFIER_nondet___CPROVER_bool$1!0@1#2|)

; convert
; Converting var_no 3 with expr ID of symbol
(define-fun B3 () Bool |__CPROVER_contracts_is_fresh::$tmp::return_value___VERIFIER_nondet___CPROVER_bool$1!0@1#2|)

; find_symbols
(declare-fun |__CPROVER_contracts_is_fresh::$tmp::return_value___VERIFIER_nondet___CPROVER_bool$1!0@2#2| () Bool)
; convert
; Converting var_no 4 with expr ID of symbol
(define-fun B4 () Bool |__CPROVER_contracts_is_fresh::$tmp::return_value___VERIFIER_nondet___CPROVER_bool$1!0@2#2|)

; convert
; Converting var_no 5 with expr ID of symbol
(define-fun B5 () Bool |__CPROVER_contracts_is_fresh::$tmp::return_value___VERIFIER_nondet___CPROVER_bool$1!0@2#2|)

; convert
; Converting var_no 6 with expr ID of symbol
(define-fun B6 () Bool |__CPROVER_contracts_is_fresh::$tmp::return_value___VERIFIER_nondet___CPROVER_bool$1!0@2#2|)

; convert
; Converting var_no 7 with expr ID of symbol
(define-fun B7 () Bool |__CPROVER_contracts_is_fresh::$tmp::return_value___VERIFIER_nondet___CPROVER_bool$1!0@2#2|)

; find_symbols
(declare-fun |__CPROVER_contracts_is_fresh::$tmp::return_value___VERIFIER_nondet___CPROVER_bool$1!0@3#2| () Bool)
; convert
; Converting var_no 8 with expr ID of symbol
(define-fun B8 () Bool |__CPROVER_contracts_is_fresh::$tmp::return_value___VERIFIER_nondet___CPROVER_bool$1!0@3#2|)

; convert
; Converting var_no 9 with expr ID of symbol
(define-fun B9 () Bool |__CPROVER_contracts_is_fresh::$tmp::return_value___VERIFIER_nondet___CPROVER_bool$1!0@3#2|)

; convert
; Converting var_no 10 with expr ID of symbol
(define-fun B10 () Bool |__CPROVER_contracts_is_fresh::$tmp::return_value___VERIFIER_nondet___CPROVER_bool$1!0@3#2|)

; convert
; Converting var_no 11 with expr ID of symbol
(define-fun B11 () Bool |__CPROVER_contracts_is_fresh::$tmp::return_value___VERIFIER_nondet___CPROVER_bool$1!0@3#2|)

; find_symbols
(declare-fun |__CPROVER_contracts_is_fresh::$tmp::return_value___VERIFIER_nondet___CPROVER_bool$1!0@4#2| () Bool)
; convert
; Converting var_no 12 with expr ID of symbol
(define-fun B12 () Bool |__CPROVER_contracts_is_fresh::$tmp::return_value___VERIFIER_nondet___CPROVER_bool$1!0@4#2|)

; convert
; Converting var_no 13 with expr ID of symbol
(define-fun B13 () Bool |__CPROVER_contracts_is_fresh::$tmp::return_value___VERIFIER_nondet___CPROVER_bool$1!0@4#2|)

; convert
; Converting var_no 14 with expr ID of symbol
(define-fun B14 () Bool |__CPROVER_contracts_is_fresh::$tmp::return_value___VERIFIER_nondet___CPROVER_bool$1!0@4#2|)

; convert
; Converting var_no 15 with expr ID of symbol
(define-fun B15 () Bool |__CPROVER_contracts_is_fresh::$tmp::return_value___VERIFIER_nondet___CPROVER_bool$1!0@4#2|)

(declare-datatypes ((struct.0 0)) (((mk-struct.0 (struct.0.coeffs (Array (_ BitVec 64) (_ BitVec 16))) ))))
(define-fun update-struct.0.coeffs ((s struct.0) (v (Array (_ BitVec 64) (_ BitVec 16)))) struct.0 (mk-struct.0 v ))

(declare-datatypes ((struct.2 0)) (((mk-struct.2 (struct.2.vec (Array (_ BitVec 64) struct.0)) ))))
(define-fun update-struct.2.vec ((s struct.2) (v (Array (_ BitVec 64) struct.0))) struct.2 (mk-struct.2 v ))

; find_symbols
(declare-fun |nondet_symex::nondet4| () struct.2)
; set_to true (equal)
(define-fun |symex_dynamic::dynamic_object$10#1..vec| () (Array (_ BitVec 64) struct.0) (struct.2.vec |nondet_symex::nondet4|))

; convert
; Converting var_no 16 with expr ID of forall
(declare-fun B16 () Bool)
(assert (= B16 (forall ((|mlk_polyvec_basemul_acc_montgomery_cached::requires::1::k1!0@12#0| (_ BitVec 32))) (or (bvuge |mlk_polyvec_basemul_acc_montgomery_cached::requires::1::k1!0@12#0| (_ bv3 32)) (forall ((|mlk_polyvec_basemul_acc_montgomery_cached::requires::1::1::_cbmc_idx20!0@12#0| (_ BitVec 32))) (or (bvuge |mlk_polyvec_basemul_acc_montgomery_cached::requires::1::1::_cbmc_idx20!0@12#0| (_ bv256 32)) (and (bvsge ((_ sign_extend 16) (select (struct.0.coeffs (select |symex_dynamic::dynamic_object$10#1..vec| ((_ zero_extend 32) |mlk_polyvec_basemul_acc_montgomery_cached::requires::1::k1!0@12#0|))) ((_ zero_extend 32) |mlk_polyvec_basemul_acc_montgomery_cached::requires::1::1::_cbmc_idx20!0@12#0|))) (_ bv0 32)) (not (bvsge ((_ sign_extend 16) (select (struct.0.coeffs (select |symex_dynamic::dynamic_object$10#1..vec| ((_ zero_extend 32) |mlk_polyvec_basemul_acc_montgomery_cached::requires::1::k1!0@12#0|))) ((_ zero_extend 32) |mlk_polyvec_basemul_acc_montgomery_cached::requires::1::1::_cbmc_idx20!0@12#0|))) (_ bv4096 32))))))))))

; convert
; Converting var_no 17 with expr ID of not
(define-fun B17 () Bool (not |__CPROVER_contracts_is_fresh::$tmp::return_value___VERIFIER_nondet___CPROVER_bool$1!0@1#2|))

; convert
; Converting var_no 18 with expr ID of not
(define-fun B18 () Bool (not |__CPROVER_contracts_is_fresh::$tmp::return_value___VERIFIER_nondet___CPROVER_bool$1!0@2#2|))

; convert
; Converting var_no 19 with expr ID of not
(define-fun B19 () Bool (not |__CPROVER_contracts_is_fresh::$tmp::return_value___VERIFIER_nondet___CPROVER_bool$1!0@3#2|))

; convert
; Converting var_no 20 with expr ID of not
(define-fun B20 () Bool (not |__CPROVER_contracts_is_fresh::$tmp::return_value___VERIFIER_nondet___CPROVER_bool$1!0@4#2|))

; find_symbols
(declare-fun |symex::args::0| () (_ BitVec 64))
; set_to true (equal)
(define-fun |harness::1::r!0@1#1| () (_ BitVec 64) |symex::args::0|)

; find_symbols
(declare-fun |symex::args::1| () (_ BitVec 64))
; set_to true (equal)
(define-fun |harness::1::a!0@1#1| () (_ BitVec 64) |symex::args::1|)

; find_symbols
(declare-fun |symex::args::2| () (_ BitVec 64))
; set_to true (equal)
(define-fun |harness::1::b!0@1#1| () (_ BitVec 64) |symex::args::2|)

(declare-datatypes ((struct.5 0)) (((mk-struct.5 (struct.5.coeffs (Array (_ BitVec 64) (_ BitVec 16))) ))))
(define-fun update-struct.5.coeffs ((s struct.5) (v (Array (_ BitVec 64) (_ BitVec 16)))) struct.5 (mk-struct.5 v ))

(declare-datatypes ((struct.4 0)) (((mk-struct.4 (struct.4.vec (Array (_ BitVec 64) struct.5)) ))))
(define-fun update-struct.4.vec ((s struct.4) (v (Array (_ BitVec 64) struct.5))) struct.4 (mk-struct.4 v ))

; find_symbols
(declare-fun |symex::args::3| () (_ BitVec 64))
; set_to true (equal)
(define-fun |harness::1::b_cached!0@1#1| () (_ BitVec 64) |symex::args::3|)

(declare-datatypes ((struct.10 0)) (((mk-struct.10 (struct.10.is_writable (_ BitVec 8)) (struct.10.$pad1 (_ BitVec 56)) (struct.10.size (_ BitVec 64)) (struct.10.lb (_ BitVec 64)) (struct.10.ub (_ BitVec 64)) ))))
(define-fun update-struct.10.is_writable ((s struct.10) (v (_ BitVec 8))) struct.10 (mk-struct.10 v (struct.10.$pad1 s) (struct.10.size s) (struct.10.lb s) (struct.10.ub s) ))
(define-fun update-struct.10.$pad1 ((s struct.10) (v (_ BitVec 56))) struct.10 (mk-struct.10 (struct.10.is_writable s) v (struct.10.size s) (struct.10.lb s) (struct.10.ub s) ))
(define-fun update-struct.10.size ((s struct.10) (v (_ BitVec 64))) struct.10 (mk-struct.10 (struct.10.is_writable s) (struct.10.$pad1 s) v (struct.10.lb s) (struct.10.ub s) ))
(define-fun update-struct.10.lb ((s struct.10) (v (_ BitVec 64))) struct.10 (mk-struct.10 (struct.10.is_writable s) (struct.10.$pad1 s) (struct.10.size s) v (struct.10.ub s) ))
(define-fun update-struct.10.ub ((s struct.10) (v (_ BitVec 64))) struct.10 (mk-struct.10 (struct.10.is_writable s) (struct.10.$pad1 s) (struct.10.size s) (struct.10.lb s) v ))

(declare-datatypes ((struct.9 0)) (((mk-struct.9 (struct.9.max_elems (_ BitVec 64)) (struct.9.elems (_ BitVec 64)) ))))
(define-fun update-struct.9.max_elems ((s struct.9) (v (_ BitVec 64))) struct.9 (mk-struct.9 v (struct.9.elems s) ))
(define-fun update-struct.9.elems ((s struct.9) (v (_ BitVec 64))) struct.9 (mk-struct.9 (struct.9.max_elems s) v ))

(declare-datatypes ((struct.13 0)) (((mk-struct.13 (struct.13.max_elems (_ BitVec 64)) (struct.13.watermark (_ BitVec 64)) (struct.13.nof_elems (_ BitVec 64)) (struct.13.is_empty (_ BitVec 8)) (struct.13.indexed_by_object_id (_ BitVec 8)) (struct.13.$pad5 (_ BitVec 48)) (struct.13.elems (_ BitVec 64)) ))))
(define-fun update-struct.13.max_elems ((s struct.13) (v (_ BitVec 64))) struct.13 (mk-struct.13 v (struct.13.watermark s) (struct.13.nof_elems s) (struct.13.is_empty s) (struct.13.indexed_by_object_id s) (struct.13.$pad5 s) (struct.13.elems s) ))
(define-fun update-struct.13.watermark ((s struct.13) (v (_ BitVec 64))) struct.13 (mk-struct.13 (struct.13.max_elems s) v (struct.13.nof_elems s) (struct.13.is_empty s) (struct.13.indexed_by_object_id s) (struct.13.$pad5 s) (struct.13.elems s) ))
(define-fun update-struct.13.nof_elems ((s struct.13) (v (_ BitVec 64))) struct.13 (mk-struct.13 (struct.13.max_elems s) (struct.13.watermark s) v (struct.13.is_empty s) (struct.13.indexed_by_object_id s) (struct.13.$pad5 s) (struct.13.elems s) ))
(define-fun update-struct.13.is_empty ((s struct.13) (v (_ BitVec 8))) struct.13 (mk-struct.13 (struct.13.max_elems s) (struct.13.watermark s) (struct.13.nof_elems s) v (struct.13.indexed_by_object_id s) (struct.13.$pad5 s) (struct.13.elems s) ))
(define-fun update-struct.13.indexed_by_object_id ((s struct.13) (v (_ BitVec 8))) struct.13 (mk-struct.13 (struct.13.max_elems s) (struct.13.watermark s) (struct.13.nof_elems s) (struct.13.is_empty s) v (struct.13.$pad5 s) (struct.13.elems s) ))
(define-fun update-struct.13.$pad5 ((s struct.13) (v (_ BitVec 48))) struct.13 (mk-struct.13 (struct.13.max_elems s) (struct.13.watermark s) (struct.13.nof_elems s) (struct.13.is_empty s) (struct.13.indexed_by_object_id s) v (struct.13.elems s) ))
(define-fun update-struct.13.elems ((s struct.13) (v (_ BitVec 64))) struct.13 (mk-struct.13 (struct.13.max_elems s) (struct.13.watermark s) (struct.13.nof_elems s) (struct.13.is_empty s) (struct.13.indexed_by_object_id s) (struct.13.$pad5 s) v ))

(declare-datatypes ((struct.15 0)) (((mk-struct.15 (struct.15.fresh_car struct.10) (struct.15.ptr_pred (_ BitVec 64)) ))))
(define-fun update-struct.15.fresh_car ((s struct.15) (v struct.10)) struct.15 (mk-struct.15 v (struct.15.ptr_pred s) ))
(define-fun update-struct.15.ptr_pred ((s struct.15) (v (_ BitVec 64))) struct.15 (mk-struct.15 (struct.15.fresh_car s) v ))

(declare-datatypes ((struct.8 0)) (((mk-struct.8 (struct.8.contract_assigns struct.9) (struct.8.contract_frees struct.13) (struct.8.contract_frees_append struct.13) (struct.8.allocated struct.13) (struct.8.deallocated struct.13) (struct.8.linked_ptr_pred_ctx (_ BitVec 64)) (struct.8.linked_allocated (_ BitVec 64)) (struct.8.linked_deallocated (_ BitVec 64)) (struct.8.assume_requires_ctx (_ BitVec 8)) (struct.8.assert_requires_ctx (_ BitVec 8)) (struct.8.assume_ensures_ctx (_ BitVec 8)) (struct.8.assert_ensures_ctx (_ BitVec 8)) (struct.8.allow_allocate (_ BitVec 8)) (struct.8.allow_deallocate (_ BitVec 8)) (struct.8.$pad14 (_ BitVec 16)) ))))
(define-fun update-struct.8.contract_assigns ((s struct.8) (v struct.9)) struct.8 (mk-struct.8 v (struct.8.contract_frees s) (struct.8.contract_frees_append s) (struct.8.allocated s) (struct.8.deallocated s) (struct.8.linked_ptr_pred_ctx s) (struct.8.linked_allocated s) (struct.8.linked_deallocated s) (struct.8.assume_requires_ctx s) (struct.8.assert_requires_ctx s) (struct.8.assume_ensures_ctx s) (struct.8.assert_ensures_ctx s) (struct.8.allow_allocate s) (struct.8.allow_deallocate s) (struct.8.$pad14 s) ))
(define-fun update-struct.8.contract_frees ((s struct.8) (v struct.13)) struct.8 (mk-struct.8 (struct.8.contract_assigns s) v (struct.8.contract_frees_append s) (struct.8.allocated s) (struct.8.deallocated s) (struct.8.linked_ptr_pred_ctx s) (struct.8.linked_allocated s) (struct.8.linked_deallocated s) (struct.8.assume_requires_ctx s) (struct.8.assert_requires_ctx s) (struct.8.assume_ensures_ctx s) (struct.8.assert_ensures_ctx s) (struct.8.allow_allocate s) (struct.8.allow_deallocate s) (struct.8.$pad14 s) ))
(define-fun update-struct.8.contract_frees_append ((s struct.8) (v struct.13)) struct.8 (mk-struct.8 (struct.8.contract_assigns s) (struct.8.contract_frees s) v (struct.8.allocated s) (struct.8.deallocated s) (struct.8.linked_ptr_pred_ctx s) (struct.8.linked_allocated s) (struct.8.linked_deallocated s) (struct.8.assume_requires_ctx s) (struct.8.assert_requires_ctx s) (struct.8.assume_ensures_ctx s) (struct.8.assert_ensures_ctx s) (struct.8.allow_allocate s) (struct.8.allow_deallocate s) (struct.8.$pad14 s) ))
(define-fun update-struct.8.allocated ((s struct.8) (v struct.13)) struct.8 (mk-struct.8 (struct.8.contract_assigns s) (struct.8.contract_frees s) (struct.8.contract_frees_append s) v (struct.8.deallocated s) (struct.8.linked_ptr_pred_ctx s) (struct.8.linked_allocated s) (struct.8.linked_deallocated s) (struct.8.assume_requires_ctx s) (struct.8.assert_requires_ctx s) (struct.8.assume_ensures_ctx s) (struct.8.assert_ensures_ctx s) (struct.8.allow_allocate s) (struct.8.allow_deallocate s) (struct.8.$pad14 s) ))
(define-fun update-struct.8.deallocated ((s struct.8) (v struct.13)) struct.8 (mk-struct.8 (struct.8.contract_assigns s) (struct.8.contract_frees s) (struct.8.contract_frees_append s) (struct.8.allocated s) v (struct.8.linked_ptr_pred_ctx s) (struct.8.linked_allocated s) (struct.8.linked_deallocated s) (struct.8.assume_requires_ctx s) (struct.8.assert_requires_ctx s) (struct.8.assume_ensures_ctx s) (struct.8.assert_ensures_ctx s) (struct.8.allow_allocate s) (struct.8.allow_deallocate s) (struct.8.$pad14 s) ))
(define-fun update-struct.8.linked_ptr_pred_ctx ((s struct.8) (v (_ BitVec 64))) struct.8 (mk-struct.8 (struct.8.contract_assigns s) (struct.8.contract_frees s) (struct.8.contract_frees_append s) (struct.8.allocated s) (struct.8.deallocated s) v (struct.8.linked_allocated s) (struct.8.linked_deallocated s) (struct.8.assume_requires_ctx s) (struct.8.assert_requires_ctx s) (struct.8.assume_ensures_ctx s) (struct.8.assert_ensures_ctx s) (struct.8.allow_allocate s) (struct.8.allow_deallocate s) (struct.8.$pad14 s) ))
(define-fun update-struct.8.linked_allocated ((s struct.8) (v (_ BitVec 64))) struct.8 (mk-struct.8 (struct.8.contract_assigns s) (struct.8.contract_frees s) (struct.8.contract_frees_append s) (struct.8.allocated s) (struct.8.deallocated s) (struct.8.linked_ptr_pred_ctx s) v (struct.8.linked_deallocated s) (struct.8.assume_requires_ctx s) (struct.8.assert_requires_ctx s) (struct.8.assume_ensures_ctx s) (struct.8.assert_ensures_ctx s) (struct.8.allow_allocate s) (struct.8.allow_deallocate s) (struct.8.$pad14 s) ))
(define-fun update-struct.8.linked_deallocated ((s struct.8) (v (_ BitVec 64))) struct.8 (mk-struct.8 (struct.8.contract_assigns s) (struct.8.contract_frees s) (struct.8.contract_frees_append s) (struct.8.allocated s) (struct.8.deallocated s) (struct.8.linked_ptr_pred_ctx s) (struct.8.linked_allocated s) v (struct.8.assume_requires_ctx s) (struct.8.assert_requires_ctx s) (struct.8.assume_ensures_ctx s) (struct.8.assert_ensures_ctx s) (struct.8.allow_allocate s) (struct.8.allow_deallocate s) (struct.8.$pad14 s) ))
(define-fun update-struct.8.assume_requires_ctx ((s struct.8) (v (_ BitVec 8))) struct.8 (mk-struct.8 (struct.8.contract_assigns s) (struct.8.contract_frees s) (struct.8.contract_frees_append s) (struct.8.allocated s) (struct.8.deallocated s) (struct.8.linked_ptr_pred_ctx s) (struct.8.linked_allocated s) (struct.8.linked_deallocated s) v (struct.8.assert_requires_ctx s) (struct.8.assume_ensures_ctx s) (struct.8.assert_ensures_ctx s) (struct.8.allow_allocate s) (struct.8.allow_deallocate s) (struct.8.$pad14 s) ))
(define-fun update-struct.8.assert_requires_ctx ((s struct.8) (v (_ BitVec 8))) struct.8 (mk-struct.8 (struct.8.contract_assigns s) (struct.8.contract_frees s) (struct.8.contract_frees_append s) (struct.8.allocated s) (struct.8.deallocated s) (struct.8.linked_ptr_pred_ctx s) (struct.8.linked_allocated s) (struct.8.linked_deallocated s) (struct.8.assume_requires_ctx s) v (struct.8.assume_ensures_ctx s) (struct.8.assert_ensures_ctx s) (struct.8.allow_allocate s) (struct.8.allow_deallocate s) (struct.8.$pad14 s) ))
(define-fun update-struct.8.assume_ensures_ctx ((s struct.8) (v (_ BitVec 8))) struct.8 (mk-struct.8 (struct.8.contract_assigns s) (struct.8.contract_frees s) (struct.8.contract_frees_append s) (struct.8.allocated s) (struct.8.deallocated s) (struct.8.linked_ptr_pred_ctx s) (struct.8.linked_allocated s) (struct.8.linked_deallocated s) (struct.8.assume_requires_ctx s) (struct.8.assert_requires_ctx s) v (struct.8.assert_ensures_ctx s) (struct.8.allow_allocate s) (struct.8.allow_deallocate s) (struct.8.$pad14 s) ))
(define-fun update-struct.8.assert_ensures_ctx ((s struct.8) (v (_ BitVec 8))) struct.8 (mk-struct.8 (struct.8.contract_assigns s) (struct.8.contract_frees s) (struct.8.contract_frees_append s) (struct.8.allocated s) (struct.8.deallocated s) (struct.8.linked_ptr_pred_ctx s) (struct.8.linked_allocated s) (struct.8.linked_deallocated s) (struct.8.assume_requires_ctx s) (struct.8.assert_requires_ctx s) (struct.8.assume_ensures_ctx s) v (struct.8.allow_allocate s) (struct.8.allow_deallocate s) (struct.8.$pad14 s) ))
(define-fun update-struct.8.allow_allocate ((s struct.8) (v (_ BitVec 8))) struct.8 (mk-struct.8 (struct.8.contract_assigns s) (struct.8.contract_frees s) (struct.8.contract_frees_append s) (struct.8.allocated s) (struct.8.deallocated s) (struct.8.linked_ptr_pred_ctx s) (struct.8.linked_allocated s) (struct.8.linked_deallocated s) (struct.8.assume_requires_ctx s) (struct.8.assert_requires_ctx s) (struct.8.assume_ensures_ctx s) (struct.8.assert_ensures_ctx s) v (struct.8.allow_deallocate s) (struct.8.$pad14 s) ))
(define-fun update-struct.8.allow_deallocate ((s struct.8) (v (_ BitVec 8))) struct.8 (mk-struct.8 (struct.8.contract_assigns s) (struct.8.contract_frees s) (struct.8.contract_frees_append s) (struct.8.allocated s) (struct.8.deallocated s) (struct.8.linked_ptr_pred_ctx s) (struct.8.linked_allocated s) (struct.8.linked_deallocated s) (struct.8.assume_requires_ctx s) (struct.8.assert_requires_ctx s) (struct.8.assume_ensures_ctx s) (struct.8.assert_ensures_ctx s) (struct.8.allow_allocate s) v (struct.8.$pad14 s) ))
(define-fun update-struct.8.$pad14 ((s struct.8) (v (_ BitVec 16))) struct.8 (mk-struct.8 (struct.8.contract_assigns s) (struct.8.contract_frees s) (struct.8.contract_frees_append s) (struct.8.allocated s) (struct.8.deallocated s) (struct.8.linked_ptr_pred_ctx s) (struct.8.linked_allocated s) (struct.8.linked_deallocated s) (struct.8.assume_requires_ctx s) (struct.8.assert_requires_ctx s) (struct.8.assume_ensures_ctx s) (struct.8.assert_ensures_ctx s) (struct.8.allow_allocate s) (struct.8.allow_deallocate s) v ))

; find_symbols
(declare-fun |mlk_polyvec_basemul_acc_montgomery_cached::__requires_write_set!0@1| () struct.8)
; find_symbols
(declare-fun |symex::args::4| () (_ BitVec 64))
; set_to true
(assert (= (concat (_ bv2 10) (_ bv0 54)) |symex::args::4|))

; find_symbols
(declare-fun |mlk_polyvec_basemul_acc_montgomery_cached::__ensures_write_set!0@1| () struct.8)
; find_symbols
(declare-fun |symex::args::5| () (_ BitVec 64))
; set_to true
(assert (= (concat (_ bv3 10) (_ bv0 54)) |symex::args::5|))

; find_symbols
(declare-fun |mlk_polyvec_basemul_acc_montgomery_cached::__ptr_pred_ctx!0@1| () struct.15)
; find_symbols
(declare-fun |symex::args::6| () (_ BitVec 64))
; set_to true
(assert (= (concat (_ bv4 10) (_ bv0 54)) |symex::args::6|))

; find_symbols
(declare-fun |symex::args::7| () (_ BitVec 64))
; set_to true
(assert (= (concat (_ bv2 10) (_ bv0 54)) |symex::args::7|))

; find_symbols
(declare-fun |symex::args::8| () (_ BitVec 64))
; set_to true
(assert (= (concat (_ bv4 10) (_ bv0 54)) |symex::args::8|))

; find_symbols
(declare-fun |symex::args::9| () (_ BitVec 64))
; set_to true
(assert (= (concat (_ bv3 10) (_ bv0 54)) |symex::args::9|))

; find_symbols
(declare-fun |symex::args::10| () (_ BitVec 64))
; set_to true
(assert (= (concat (_ bv4 10) (_ bv0 54)) |symex::args::10|))

; find_symbols
(declare-fun |mlk_polyvec_basemul_acc_montgomery_cached::r_wrapper!0@1| () (_ BitVec 64))
; find_symbols
(declare-fun |symex::args::11| () (_ BitVec 64))
; set_to true
(assert (= (concat (_ bv5 10) (_ bv0 54)) |symex::args::11|))

; find_symbols
(declare-fun |symex::args::12| () (_ BitVec 64))
; set_to true
(assert (= (concat (_ bv2 10) (_ bv0 54)) |symex::args::12|))

; find_symbols
(declare-fun |symex_dynamic::dynamic_object$9| () struct.0)
; find_symbols
(declare-fun |symex::args::13| () (_ BitVec 64))
; set_to true
(assert (= (concat (_ bv6 10) (_ bv0 54)) |symex::args::13|))

; find_symbols
(declare-fun |mlk_polyvec_basemul_acc_montgomery_cached::a_wrapper!0@1| () (_ BitVec 64))
; find_symbols
(declare-fun |symex::args::14| () (_ BitVec 64))
; set_to true
(assert (= (concat (_ bv7 10) (_ bv0 54)) |symex::args::14|))

; find_symbols
(declare-fun |symex::args::15| () (_ BitVec 64))
; set_to true
(assert (= (concat (_ bv2 10) (_ bv0 54)) |symex::args::15|))

; find_symbols
(declare-fun |symex_dynamic::dynamic_object$10| () struct.2)
; find_symbols
(declare-fun |symex::args::16| () (_ BitVec 64))
; set_to true
(assert (= (concat (_ bv8 10) (_ bv0 54)) |symex::args::16|))

; find_symbols
(declare-fun |mlk_polyvec_basemul_acc_montgomery_cached::b_wrapper!0@1| () (_ BitVec 64))
; find_symbols
(declare-fun |symex::args::17| () (_ BitVec 64))
; set_to true
(assert (= (concat (_ bv9 10) (_ bv0 54)) |symex::args::17|))

; find_symbols
(declare-fun |symex::args::18| () (_ BitVec 64))
; set_to true
(assert (= (concat (_ bv2 10) (_ bv0 54)) |symex::args::18|))

; find_symbols
(declare-fun |symex_dynamic::dynamic_object$11| () struct.2)
; find_symbols
(declare-fun |symex::args::19| () (_ BitVec 64))
; set_to true
(assert (= (concat (_ bv10 10) (_ bv0 54)) |symex::args::19|))

; find_symbols
(declare-fun |mlk_polyvec_basemul_acc_montgomery_cached::b_cache_wrapper!0@1| () (_ BitVec 64))
; find_symbols
(declare-fun |symex::args::20| () (_ BitVec 64))
; set_to true
(assert (= (concat (_ bv11 10) (_ bv0 54)) |symex::args::20|))

; find_symbols
(declare-fun |symex::args::21| () (_ BitVec 64))
; set_to true
(assert (= (concat (_ bv2 10) (_ bv0 54)) |symex::args::21|))

; find_symbols
(declare-fun |symex_dynamic::dynamic_object$12| () struct.4)
; find_symbols
(declare-fun |symex::args::22| () (_ BitVec 64))
; set_to true
(assert (= (concat (_ bv12 10) (_ bv0 54)) |symex::args::22|))

; find_symbols
(declare-fun |mlk_polyvec_basemul_acc_montgomery_cached::__contract_write_set!0@1| () struct.8)
; find_symbols
(declare-fun |symex::args::23| () (_ BitVec 64))
; set_to true
(assert (= (concat (_ bv13 10) (_ bv0 54)) |symex::args::23|))

; find_symbols
(declare-fun |symex::args::24| () (_ BitVec 64))
; set_to true
(assert (= (concat (_ bv6 10) (_ bv0 54)) |symex::args::24|))

; find_symbols
(declare-fun |symex::args::25| () (_ BitVec 64))
; set_to true
(assert (= (concat (_ bv8 10) (_ bv0 54)) |symex::args::25|))

; find_symbols
(declare-fun |symex::args::26| () (_ BitVec 64))
; set_to true
(assert (= (concat (_ bv10 10) (_ bv0 54)) |symex::args::26|))

; find_symbols
(declare-fun |symex::args::27| () (_ BitVec 64))
; set_to true
(assert (= (concat (_ bv12 10) (_ bv0 54)) |symex::args::27|))

; find_symbols
(declare-fun |symex::args::28| () (_ BitVec 64))
; set_to true
(assert (= (concat (_ bv13 10) (_ bv0 54)) |symex::args::28|))

; find_symbols
(declare-fun |symex::args::29| () (_ BitVec 64))
; set_to true
(assert (= (concat (_ bv2 10) (_ bv0 54)) |symex::args::29|))

; find_symbols
(declare-fun |symex::args::30| () (_ BitVec 64))
; set_to true
(assert (= (concat (_ bv13 10) (_ bv0 54)) |symex::args::30|))

; find_symbols
(declare-fun |symex::args::31| () (_ BitVec 64))
; set_to true
(assert (= (concat (_ bv6 10) (_ bv0 54)) |symex::args::31|))

; find_symbols
(declare-fun |symex::args::32| () (_ BitVec 64))
; set_to true
(assert (= (concat (_ bv6 10) (_ bv0 54)) |symex::args::32|))

; find_symbols
(declare-fun |symex::args::33| () (_ BitVec 64))
; set_to true
(assert (= (concat (_ bv8 10) (_ bv0 54)) |symex::args::33|))

; find_symbols
(declare-fun |symex::args::34| () (_ BitVec 64))
; set_to true
(assert (= (concat (_ bv10 10) (_ bv0 54)) |symex::args::34|))

; find_symbols
(declare-fun |symex::args::35| () (_ BitVec 64))
; set_to true
(assert (= (concat (_ bv12 10) (_ bv0 54)) |symex::args::35|))

; find_symbols
(declare-fun |symex::args::36| () (_ BitVec 64))
; set_to true
(assert (= (concat (_ bv13 10) (_ bv0 54)) |symex::args::36|))

; find_symbols
(declare-fun |symex::args::37| () (_ BitVec 64))
; set_to true
(assert (= (concat (_ bv2 10) (_ bv0 54)) |symex::args::37|))

; find_symbols
(declare-fun |symex::args::38| () (_ BitVec 64))
; set_to true
(assert (= (concat (_ bv6 10) (_ bv0 54)) |symex::args::38|))

; find_symbols
(declare-fun |symex::args::39| () (_ BitVec 64))
; set_to true
(assert (= (concat (_ bv8 10) (_ bv0 54)) |symex::args::39|))

; find_symbols
(declare-fun |symex::args::40| () (_ BitVec 64))
; set_to true
(assert (= (concat (_ bv10 10) (_ bv0 54)) |symex::args::40|))

; find_symbols
(declare-fun |symex::args::41| () (_ BitVec 64))
; set_to true
(assert (= (concat (_ bv12 10) (_ bv0 54)) |symex::args::41|))

; find_symbols
(declare-fun |symex::args::42| () (_ BitVec 64))
; set_to true
(assert (= (concat (_ bv13 10) (_ bv0 54)) |symex::args::42|))

; find_symbols
(declare-fun |symex::args::43| () (_ BitVec 64))
; set_to true
(assert (= (concat (_ bv6 10) (_ bv0 54)) |symex::args::43|))

; find_symbols
(declare-fun |symex::args::44| () (_ BitVec 64))
; set_to true
(assert (= (concat (_ bv8 10) (_ bv0 54)) |symex::args::44|))

; find_symbols
(declare-fun |symex::args::45| () (_ BitVec 64))
; set_to true
(assert (= (concat (_ bv10 10) (_ bv0 54)) |symex::args::45|))

; find_symbols
(declare-fun |symex::args::46| () (_ BitVec 64))
; set_to true
(assert (= (concat (_ bv12 10) (_ bv0 54)) |symex::args::46|))

; find_symbols
(declare-fun |symex::args::47| () (_ BitVec 64))
; set_to true
(assert (= (concat (_ bv13 10) (_ bv0 54)) |symex::args::47|))

; find_symbols
(declare-fun |mlk_polyvec_basemul_acc_montgomery_cached_c::__requires_write_set!0@1| () struct.8)
; find_symbols
(declare-fun |symex::args::48| () (_ BitVec 64))
; set_to true
(assert (= (concat (_ bv14 10) (_ bv0 54)) |symex::args::48|))

; find_symbols
(declare-fun |mlk_polyvec_basemul_acc_montgomery_cached_c::__ensures_write_set!0@1| () struct.8)
; find_symbols
(declare-fun |symex::args::49| () (_ BitVec 64))
; set_to true
(assert (= (concat (_ bv15 10) (_ bv0 54)) |symex::args::49|))

; find_symbols
(declare-fun |mlk_polyvec_basemul_acc_montgomery_cached_c::__ptr_pred_ctx!0@1| () struct.15)
; find_symbols
(declare-fun |symex::args::50| () (_ BitVec 64))
; set_to true
(assert (= (concat (_ bv16 10) (_ bv0 54)) |symex::args::50|))

; find_symbols
(declare-fun |symex::args::51| () (_ BitVec 64))
; set_to true
(assert (= (concat (_ bv14 10) (_ bv0 54)) |symex::args::51|))

; find_symbols
(declare-fun |symex::args::52| () (_ BitVec 64))
; set_to true
(assert (= (concat (_ bv16 10) (_ bv0 54)) |symex::args::52|))

; find_symbols
(declare-fun |symex::args::53| () (_ BitVec 64))
; set_to true
(assert (= (concat (_ bv15 10) (_ bv0 54)) |symex::args::53|))

; find_symbols
(declare-fun |symex::args::54| () (_ BitVec 64))
; set_to true
(assert (= (concat (_ bv16 10) (_ bv0 54)) |symex::args::54|))

; find_symbols
(declare-fun |mlk_polyvec_basemul_acc_montgomery_cached_c::r_wrapper!0@1| () (_ BitVec 64))
; find_symbols
(declare-fun |symex::args::55| () (_ BitVec 64))
; set_to true
(assert (= (concat (_ bv17 10) (_ bv0 54)) |symex::args::55|))

; find_symbols
(declare-fun |symex::args::56| () (_ BitVec 64))
; set_to true
(assert (= (concat (_ bv14 10) (_ bv0 54)) |symex::args::56|))

; find_symbols
(declare-fun |symex::args::57| () (_ BitVec 64))
; set_to true
(assert (= (concat (_ bv6 10) (_ bv0 54)) |symex::args::57|))

; find_symbols
(declare-fun |mlk_polyvec_basemul_acc_montgomery_cached_c::a_wrapper!0@1| () (_ BitVec 64))
; find_symbols
(declare-fun |symex::args::58| () (_ BitVec 64))
; set_to true
(assert (= (concat (_ bv18 10) (_ bv0 54)) |symex::args::58|))

; find_symbols
(declare-fun |symex::args::59| () (_ BitVec 64))
; set_to true
(assert (= (concat (_ bv14 10) (_ bv0 54)) |symex::args::59|))

; find_symbols
(declare-fun |symex::args::60| () (_ BitVec 64))
; set_to true
(assert (= (concat (_ bv8 10) (_ bv0 54)) |symex::args::60|))

; find_symbols
(declare-fun |mlk_polyvec_basemul_acc_montgomery_cached_c::b_wrapper!0@1| () (_ BitVec 64))
; find_symbols
(declare-fun |symex::args::61| () (_ BitVec 64))
; set_to true
(assert (= (concat (_ bv19 10) (_ bv0 54)) |symex::args::61|))

; find_symbols
(declare-fun |symex::args::62| () (_ BitVec 64))
; set_to true
(assert (= (concat (_ bv14 10) (_ bv0 54)) |symex::args::62|))

; find_symbols
(declare-fun |symex::args::63| () (_ BitVec 64))
; set_to true
(assert (= (concat (_ bv10 10) (_ bv0 54)) |symex::args::63|))

; find_symbols
(declare-fun |mlk_polyvec_basemul_acc_montgomery_cached_c::b_cache_wrapper!0@1| () (_ BitVec 64))
; find_symbols
(declare-fun |symex::args::64| () (_ BitVec 64))
; set_to true
(assert (= (concat (_ bv20 10) (_ bv0 54)) |symex::args::64|))

; find_symbols
(declare-fun |symex::args::65| () (_ BitVec 64))
; set_to true
(assert (= (concat (_ bv14 10) (_ bv0 54)) |symex::args::65|))

; find_symbols
(declare-fun |symex::args::66| () (_ BitVec 64))
; set_to true
(assert (= (concat (_ bv12 10) (_ bv0 54)) |symex::args::66|))

; find_symbols
(declare-fun |mlk_polyvec_basemul_acc_montgomery_cached::requires::1::k1!0@4#0| () (_ BitVec 32))
; find_symbols
(declare-fun |mlk_polyvec_basemul_acc_montgomery_cached::requires::1::1::_cbmc_idx20!0@4#0| () (_ BitVec 32))
; convert
; Converting var_no 21 with expr ID of =>
(define-fun B21 () Bool (=> true (or (bvuge |mlk_polyvec_basemul_acc_montgomery_cached::requires::1::k1!0@4#0| (_ bv3 32)) (bvuge |mlk_polyvec_basemul_acc_montgomery_cached::requires::1::1::_cbmc_idx20!0@4#0| (_ bv256 32)) (not (bvsge (bvmul ((_ zero_extend 32) |mlk_polyvec_basemul_acc_montgomery_cached::requires::1::k1!0@4#0|) (_ bv512 64)) (_ bv1536 64))))))

; find_symbols
(declare-fun |mlk_polyvec_basemul_acc_montgomery_cached::requires::1::k1!0@5#0| () (_ BitVec 32))
; find_symbols
(declare-fun |mlk_polyvec_basemul_acc_montgomery_cached::requires::1::1::_cbmc_idx20!0@5#0| () (_ BitVec 32))
; convert
; Converting var_no 22 with expr ID of =>
(define-fun B22 () Bool (=> true (or (bvuge |mlk_polyvec_basemul_acc_montgomery_cached::requires::1::k1!0@5#0| (_ bv3 32)) (bvuge |mlk_polyvec_basemul_acc_montgomery_cached::requires::1::1::_cbmc_idx20!0@5#0| (_ bv256 32)) (not (bvsge (bvadd (bvmul ((_ zero_extend 32) |mlk_polyvec_basemul_acc_montgomery_cached::requires::1::k1!0@5#0|) (_ bv512 64)) (bvmul ((_ zero_extend 32) |mlk_polyvec_basemul_acc_montgomery_cached::requires::1::1::_cbmc_idx20!0@5#0|) (_ bv2 64))) (_ bv1536 64))))))

; find_symbols
(declare-fun |mlk_polyvec_basemul_acc_montgomery_cached::requires::1::k1!0@10#0| () (_ BitVec 32))
; find_symbols
(declare-fun |mlk_polyvec_basemul_acc_montgomery_cached::requires::1::1::_cbmc_idx20!0@10#0| () (_ BitVec 32))
; convert
; Converting var_no 23 with expr ID of =>
(define-fun B23 () Bool (=> true (or (bvuge |mlk_polyvec_basemul_acc_montgomery_cached::requires::1::k1!0@10#0| (_ bv3 32)) (bvuge |mlk_polyvec_basemul_acc_montgomery_cached::requires::1::1::_cbmc_idx20!0@10#0| (_ bv256 32)) (not (bvsge ((_ sign_extend 16) (select (struct.0.coeffs (select |symex_dynamic::dynamic_object$10#1..vec| ((_ zero_extend 32) |mlk_polyvec_basemul_acc_montgomery_cached::requires::1::k1!0@10#0|))) ((_ zero_extend 32) |mlk_polyvec_basemul_acc_montgomery_cached::requires::1::1::_cbmc_idx20!0@10#0|))) (_ bv0 32))) (not (bvsge (bvmul ((_ zero_extend 32) |mlk_polyvec_basemul_acc_montgomery_cached::requires::1::k1!0@10#0|) (_ bv512 64)) (_ bv1536 64))))))

; find_symbols
(declare-fun |mlk_polyvec_basemul_acc_montgomery_cached::requires::1::k1!0@11#0| () (_ BitVec 32))
; find_symbols
(declare-fun |mlk_polyvec_basemul_acc_montgomery_cached::requires::1::1::_cbmc_idx20!0@11#0| () (_ BitVec 32))
; convert
; Converting var_no 24 with expr ID of =>
(define-fun B24 () Bool (=> true (or (bvuge |mlk_polyvec_basemul_acc_montgomery_cached::requires::1::k1!0@11#0| (_ bv3 32)) (bvuge |mlk_polyvec_basemul_acc_montgomery_cached::requires::1::1::_cbmc_idx20!0@11#0| (_ bv256 32)) (not (bvsge ((_ sign_extend 16) (select (struct.0.coeffs (select |symex_dynamic::dynamic_object$10#1..vec| ((_ zero_extend 32) |mlk_polyvec_basemul_acc_montgomery_cached::requires::1::k1!0@11#0|))) ((_ zero_extend 32) |mlk_polyvec_basemul_acc_montgomery_cached::requires::1::1::_cbmc_idx20!0@11#0|))) (_ bv0 32))) (not (bvsge (bvadd (bvmul ((_ zero_extend 32) |mlk_polyvec_basemul_acc_montgomery_cached::requires::1::k1!0@11#0|) (_ bv512 64)) (bvmul ((_ zero_extend 32) |mlk_polyvec_basemul_acc_montgomery_cached::requires::1::1::_cbmc_idx20!0@11#0|) (_ bv2 64))) (_ bv1536 64))))))

; find_symbols
(declare-fun |mlk_polyvec_basemul_acc_montgomery_cached_c::requires::1::k1!0@4#0| () (_ BitVec 32))
; find_symbols
(declare-fun |mlk_polyvec_basemul_acc_montgomery_cached_c::requires::1::1::_cbmc_idx38!0@4#0| () (_ BitVec 32))
; convert
; Converting var_no 25 with expr ID of =>
(define-fun B25 () Bool (=> (and true B16) (or (bvuge |mlk_polyvec_basemul_acc_montgomery_cached_c::requires::1::k1!0@4#0| (_ bv3 32)) (bvuge |mlk_polyvec_basemul_acc_montgomery_cached_c::requires::1::1::_cbmc_idx38!0@4#0| (_ bv256 32)) (not (bvsge (bvmul ((_ zero_extend 32) |mlk_polyvec_basemul_acc_montgomery_cached_c::requires::1::k1!0@4#0|) (_ bv512 64)) (_ bv1536 64))))))

; find_symbols
(declare-fun |mlk_polyvec_basemul_acc_montgomery_cached_c::requires::1::k1!0@5#0| () (_ BitVec 32))
; find_symbols
(declare-fun |mlk_polyvec_basemul_acc_montgomery_cached_c::requires::1::1::_cbmc_idx38!0@5#0| () (_ BitVec 32))
; convert
; Converting var_no 26 with expr ID of =>
(define-fun B26 () Bool (=> (and true B16) (or (bvuge |mlk_polyvec_basemul_acc_montgomery_cached_c::requires::1::k1!0@5#0| (_ bv3 32)) (bvuge |mlk_polyvec_basemul_acc_montgomery_cached_c::requires::1::1::_cbmc_idx38!0@5#0| (_ bv256 32)) (not (bvsge (bvadd (bvmul ((_ zero_extend 32) |mlk_polyvec_basemul_acc_montgomery_cached_c::requires::1::k1!0@5#0|) (_ bv512 64)) (bvmul ((_ zero_extend 32) |mlk_polyvec_basemul_acc_montgomery_cached_c::requires::1::1::_cbmc_idx38!0@5#0|) (_ bv2 64))) (_ bv1536 64))))))

; find_symbols
(declare-fun |mlk_polyvec_basemul_acc_montgomery_cached_c::requires::1::k1!0@10#0| () (_ BitVec 32))
; find_symbols
(declare-fun |mlk_polyvec_basemul_acc_montgomery_cached_c::requires::1::1::_cbmc_idx38!0@10#0| () (_ BitVec 32))
; convert
; Converting var_no 27 with expr ID of =>
(define-fun B27 () Bool (=> (and true B16) (or (bvuge |mlk_polyvec_basemul_acc_montgomery_cached_c::requires::1::k1!0@10#0| (_ bv3 32)) (bvuge |mlk_polyvec_basemul_acc_montgomery_cached_c::requires::1::1::_cbmc_idx38!0@10#0| (_ bv256 32)) (not (bvsge ((_ sign_extend 16) (select (struct.0.coeffs (select |symex_dynamic::dynamic_object$10#1..vec| ((_ zero_extend 32) |mlk_polyvec_basemul_acc_montgomery_cached_c::requires::1::k1!0@10#0|))) ((_ zero_extend 32) |mlk_polyvec_basemul_acc_montgomery_cached_c::requires::1::1::_cbmc_idx38!0@10#0|))) (_ bv0 32))) (not (bvsge (bvmul ((_ zero_extend 32) |mlk_polyvec_basemul_acc_montgomery_cached_c::requires::1::k1!0@10#0|) (_ bv512 64)) (_ bv1536 64))))))

; find_symbols
(declare-fun |mlk_polyvec_basemul_acc_montgomery_cached_c::requires::1::k1!0@11#0| () (_ BitVec 32))
; find_symbols
(declare-fun |mlk_polyvec_basemul_acc_montgomery_cached_c::requires::1::1::_cbmc_idx38!0@11#0| () (_ BitVec 32))
; convert
; Converting var_no 28 with expr ID of =>
(define-fun B28 () Bool (=> (and true B16) (or (bvuge |mlk_polyvec_basemul_acc_montgomery_cached_c::requires::1::k1!0@11#0| (_ bv3 32)) (bvuge |mlk_polyvec_basemul_acc_montgomery_cached_c::requires::1::1::_cbmc_idx38!0@11#0| (_ bv256 32)) (not (bvsge ((_ sign_extend 16) (select (struct.0.coeffs (select |symex_dynamic::dynamic_object$10#1..vec| ((_ zero_extend 32) |mlk_polyvec_basemul_acc_montgomery_cached_c::requires::1::k1!0@11#0|))) ((_ zero_extend 32) |mlk_polyvec_basemul_acc_montgomery_cached_c::requires::1::1::_cbmc_idx38!0@11#0|))) (_ bv0 32))) (not (bvsge (bvadd (bvmul ((_ zero_extend 32) |mlk_polyvec_basemul_acc_montgomery_cached_c::requires::1::k1!0@11#0|) (_ bv512 64)) (bvmul ((_ zero_extend 32) |mlk_polyvec_basemul_acc_montgomery_cached_c::requires::1::1::_cbmc_idx38!0@11#0|) (_ bv2 64))) (_ bv1536 64))))))

; find_symbols
(declare-fun |mlk_polyvec_basemul_acc_montgomery_cached_c::requires::1::k1!0@12#0| () (_ BitVec 32))
; find_symbols
(declare-fun |mlk_polyvec_basemul_acc_montgomery_cached_c::requires::1::1::_cbmc_idx38!0@12#0| () (_ BitVec 32))
; convert
; Converting var_no 29 with expr ID of =>
(define-fun B29 () Bool (=> (and true B16) (or (bvuge |mlk_polyvec_basemul_acc_montgomery_cached_c::requires::1::k1!0@12#0| (_ bv3 32)) (bvuge |mlk_polyvec_basemul_acc_montgomery_cached_c::requires::1::1::_cbmc_idx38!0@12#0| (_ bv256 32)) (and (bvsge ((_ sign_extend 16) (select (struct.0.coeffs (select |symex_dynamic::dynamic_object$10#1..vec| ((_ zero_extend 32) |mlk_polyvec_basemul_acc_montgomery_cached_c::requires::1::k1!0@12#0|))) ((_ zero_extend 32) |mlk_polyvec_basemul_acc_montgomery_cached_c::requires::1::1::_cbmc_idx38!0@12#0|))) (_ bv0 32)) (not (bvsge ((_ sign_extend 16) (select (struct.0.coeffs (select |symex_dynamic::dynamic_object$10#1..vec| ((_ zero_extend 32) |mlk_polyvec_basemul_acc_montgomery_cached_c::requires::1::k1!0@12#0|))) ((_ zero_extend 32) |mlk_polyvec_basemul_acc_montgomery_cached_c::requires::1::1::_cbmc_idx38!0@12#0|))) (_ bv4096 32)))))))

; set_to true
(assert (or (not B21) (not B22) (not B23) (not B24) (not B25) (not B26) (not B27) (not B28) (not B29)))

; convert
; Converting var_no 30 with expr ID of not
(define-fun B30 () Bool (not B29))

; convert
; Converting var_no 31 with expr ID of not
(define-fun B31 () Bool (not B25))

; convert
; Converting var_no 32 with expr ID of not
(define-fun B32 () Bool (not B26))

; convert
; Converting var_no 33 with expr ID of not
(define-fun B33 () Bool (not B27))

; convert
; Converting var_no 34 with expr ID of not
(define-fun B34 () Bool (not B28))

; convert
; Converting var_no 35 with expr ID of not
(define-fun B35 () Bool (not B21))

; convert
; Converting var_no 36 with expr ID of not
(define-fun B36 () Bool (not B22))

; convert
; Converting var_no 37 with expr ID of not
(define-fun B37 () Bool (not B23))

; convert
; Converting var_no 38 with expr ID of not
(define-fun B38 () Bool (not B24))

; set_to true
(assert (or B30 B31 B32 B33 B34 B35 B36 B37 B38))

(check-sat)


(exit)
; end of SMT2 file
